1052.46,53.8,64.48
1153.3,49.1,58.84
935.14,60.55,72.57
1093.9,51.77,62.04
1062.97,53.27,63.84
1175.06,48.19,57.76
1056.32,53.61,64.25
1016.53,55.7,66.76
1010.01,56.06,67.19
1062.22,53.31,63.89
1071.98,52.82,63.31
1087.98,52.05,62.38
992.38,57.06,68.39
1024.8,55.26,66.22
1112.6,50.9,61.0
1047.45,54.06,64.79
1121.41,50.5,60.52
1205.87,46.96,56.28
1280.8,44.21,52.99
1124.77,50.34,60.34
